certificates/rado_a10_c4_N83.cnf
c Rad2 upper bound instance: x1 + 10*x2 - x3 = 4, interval [1,83]
p cnf 83 672
1 7 0
-1 -7 0
1 2 17 0
-1 -2 -17 0
1 3 27 0
-1 -3 -27 0
1 4 37 0
-1 -4 -37 0
1 5 47 0
-1 -5 -47 0
1 6 57 0
-1 -6 -57 0
1 7 67 0
-1 -7 -67 0
1 8 77 0
-1 -8 -77 0
1 2 8 0
-1 -2 -8 0
2 18 0
-2 -18 0
2 3 28 0
-2 -3 -28 0
2 4 38 0
-2 -4 -38 0
2 5 48 0
-2 -5 -48 0
2 6 58 0
-2 -6 -58 0
2 7 68 0
-2 -7 -68 0
2 8 78 0
-2 -8 -78 0
1 3 9 0
-1 -3 -9 0
2 3 19 0
-2 -3 -19 0
3 29 0
-3 -29 0
3 4 39 0
-3 -4 -39 0
3 5 49 0
-3 -5 -49 0
3 6 59 0
-3 -6 -59 0
3 7 69 0
-3 -7 -69 0
3 8 79 0
-3 -8 -79 0
1 4 10 0
-1 -4 -10 0
2 4 20 0
-2 -4 -20 0
3 4 30 0
-3 -4 -30 0
4 40 0
-4 -40 0
4 5 50 0
-4 -5 -50 0
4 6 60 0
-4 -6 -60 0
4 7 70 0
-4 -7 -70 0
4 8 80 0
-4 -8 -80 0
1 5 11 0
-1 -5 -11 0
2 5 21 0
-2 -5 -21 0
3 5 31 0
-3 -5 -31 0
4 5 41 0
-4 -5 -41 0
5 51 0
-5 -51 0
5 6 61 0
-5 -6 -61 0
5 7 71 0
-5 -7 -71 0
5 8 81 0
-5 -8 -81 0
1 6 12 0
-1 -6 -12 0
2 6 22 0
-2 -6 -22 0
3 6 32 0
-3 -6 -32 0
4 6 42 0
-4 -6 -42 0
5 6 52 0
-5 -6 -52 0
6 62 0
-6 -62 0
6 7 72 0
-6 -7 -72 0
6 8 82 0
-6 -8 -82 0
1 7 13 0
-1 -7 -13 0
2 7 23 0
-2 -7 -23 0
3 7 33 0
-3 -7 -33 0
4 7 43 0
-4 -7 -43 0
5 7 53 0
-5 -7 -53 0
6 7 63 0
-6 -7 -63 0
7 73 0
-7 -73 0
7 8 83 0
-7 -8 -83 0
1 8 14 0
-1 -8 -14 0
2 8 24 0
-2 -8 -24 0
3 8 34 0
-3 -8 -34 0
4 8 44 0
-4 -8 -44 0
5 8 54 0
-5 -8 -54 0
6 8 64 0
-6 -8 -64 0
7 8 74 0
-7 -8 -74 0
1 9 15 0
-1 -9 -15 0
2 9 25 0
-2 -9 -25 0
3 9 35 0
-3 -9 -35 0
4 9 45 0
-4 -9 -45 0
5 9 55 0
-5 -9 -55 0
6 9 65 0
-6 -9 -65 0
7 9 75 0
-7 -9 -75 0
1 10 16 0
-1 -10 -16 0
2 10 26 0
-2 -10 -26 0
3 10 36 0
-3 -10 -36 0
4 10 46 0
-4 -10 -46 0
5 10 56 0
-5 -10 -56 0
6 10 66 0
-6 -10 -66 0
7 10 76 0
-7 -10 -76 0
1 11 17 0
-1 -11 -17 0
2 11 27 0
-2 -11 -27 0
3 11 37 0
-3 -11 -37 0
4 11 47 0
-4 -11 -47 0
5 11 57 0
-5 -11 -57 0
6 11 67 0
-6 -11 -67 0
7 11 77 0
-7 -11 -77 0
1 12 18 0
-1 -12 -18 0
2 12 28 0
-2 -12 -28 0
3 12 38 0
-3 -12 -38 0
4 12 48 0
-4 -12 -48 0
5 12 58 0
-5 -12 -58 0
6 12 68 0
-6 -12 -68 0
7 12 78 0
-7 -12 -78 0
1 13 19 0
-1 -13 -19 0
2 13 29 0
-2 -13 -29 0
3 13 39 0
-3 -13 -39 0
4 13 49 0
-4 -13 -49 0
5 13 59 0
-5 -13 -59 0
6 13 69 0
-6 -13 -69 0
7 13 79 0
-7 -13 -79 0
1 14 20 0
-1 -14 -20 0
2 14 30 0
-2 -14 -30 0
3 14 40 0
-3 -14 -40 0
4 14 50 0
-4 -14 -50 0
5 14 60 0
-5 -14 -60 0
6 14 70 0
-6 -14 -70 0
7 14 80 0
-7 -14 -80 0
1 15 21 0
-1 -15 -21 0
2 15 31 0
-2 -15 -31 0
3 15 41 0
-3 -15 -41 0
4 15 51 0
-4 -15 -51 0
5 15 61 0
-5 -15 -61 0
6 15 71 0
-6 -15 -71 0
7 15 81 0
-7 -15 -81 0
1 16 22 0
-1 -16 -22 0
2 16 32 0
-2 -16 -32 0
3 16 42 0
-3 -16 -42 0
4 16 52 0
-4 -16 -52 0
5 16 62 0
-5 -16 -62 0
6 16 72 0
-6 -16 -72 0
7 16 82 0
-7 -16 -82 0
1 17 23 0
-1 -17 -23 0
2 17 33 0
-2 -17 -33 0
3 17 43 0
-3 -17 -43 0
4 17 53 0
-4 -17 -53 0
5 17 63 0
-5 -17 -63 0
6 17 73 0
-6 -17 -73 0
7 17 83 0
-7 -17 -83 0
1 18 24 0
-1 -18 -24 0
2 18 34 0
-2 -18 -34 0
3 18 44 0
-3 -18 -44 0
4 18 54 0
-4 -18 -54 0
5 18 64 0
-5 -18 -64 0
6 18 74 0
-6 -18 -74 0
1 19 25 0
-1 -19 -25 0
2 19 35 0
-2 -19 -35 0
3 19 45 0
-3 -19 -45 0
4 19 55 0
-4 -19 -55 0
5 19 65 0
-5 -19 -65 0
6 19 75 0
-6 -19 -75 0
1 20 26 0
-1 -20 -26 0
2 20 36 0
-2 -20 -36 0
3 20 46 0
-3 -20 -46 0
4 20 56 0
-4 -20 -56 0
5 20 66 0
-5 -20 -66 0
6 20 76 0
-6 -20 -76 0
1 21 27 0
-1 -21 -27 0
2 21 37 0
-2 -21 -37 0
3 21 47 0
-3 -21 -47 0
4 21 57 0
-4 -21 -57 0
5 21 67 0
-5 -21 -67 0
6 21 77 0
-6 -21 -77 0
1 22 28 0
-1 -22 -28 0
2 22 38 0
-2 -22 -38 0
3 22 48 0
-3 -22 -48 0
4 22 58 0
-4 -22 -58 0
5 22 68 0
-5 -22 -68 0
6 22 78 0
-6 -22 -78 0
1 23 29 0
-1 -23 -29 0
2 23 39 0
-2 -23 -39 0
3 23 49 0
-3 -23 -49 0
4 23 59 0
-4 -23 -59 0
5 23 69 0
-5 -23 -69 0
6 23 79 0
-6 -23 -79 0
1 24 30 0
-1 -24 -30 0
2 24 40 0
-2 -24 -40 0
3 24 50 0
-3 -24 -50 0
4 24 60 0
-4 -24 -60 0
5 24 70 0
-5 -24 -70 0
6 24 80 0
-6 -24 -80 0
1 25 31 0
-1 -25 -31 0
2 25 41 0
-2 -25 -41 0
3 25 51 0
-3 -25 -51 0
4 25 61 0
-4 -25 -61 0
5 25 71 0
-5 -25 -71 0
6 25 81 0
-6 -25 -81 0
1 26 32 0
-1 -26 -32 0
2 26 42 0
-2 -26 -42 0
3 26 52 0
-3 -26 -52 0
4 26 62 0
-4 -26 -62 0
5 26 72 0
-5 -26 -72 0
6 26 82 0
-6 -26 -82 0
1 27 33 0
-1 -27 -33 0
2 27 43 0
-2 -27 -43 0
3 27 53 0
-3 -27 -53 0
4 27 63 0
-4 -27 -63 0
5 27 73 0
-5 -27 -73 0
6 27 83 0
-6 -27 -83 0
1 28 34 0
-1 -28 -34 0
2 28 44 0
-2 -28 -44 0
3 28 54 0
-3 -28 -54 0
4 28 64 0
-4 -28 -64 0
5 28 74 0
-5 -28 -74 0
1 29 35 0
-1 -29 -35 0
2 29 45 0
-2 -29 -45 0
3 29 55 0
-3 -29 -55 0
4 29 65 0
-4 -29 -65 0
5 29 75 0
-5 -29 -75 0
1 30 36 0
-1 -30 -36 0
2 30 46 0
-2 -30 -46 0
3 30 56 0
-3 -30 -56 0
4 30 66 0
-4 -30 -66 0
5 30 76 0
-5 -30 -76 0
1 31 37 0
-1 -31 -37 0
2 31 47 0
-2 -31 -47 0
3 31 57 0
-3 -31 -57 0
4 31 67 0
-4 -31 -67 0
5 31 77 0
-5 -31 -77 0
1 32 38 0
-1 -32 -38 0
2 32 48 0
-2 -32 -48 0
3 32 58 0
-3 -32 -58 0
4 32 68 0
-4 -32 -68 0
5 32 78 0
-5 -32 -78 0
1 33 39 0
-1 -33 -39 0
2 33 49 0
-2 -33 -49 0
3 33 59 0
-3 -33 -59 0
4 33 69 0
-4 -33 -69 0
5 33 79 0
-5 -33 -79 0
1 34 40 0
-1 -34 -40 0
2 34 50 0
-2 -34 -50 0
3 34 60 0
-3 -34 -60 0
4 34 70 0
-4 -34 -70 0
5 34 80 0
-5 -34 -80 0
1 35 41 0
-1 -35 -41 0
2 35 51 0
-2 -35 -51 0
3 35 61 0
-3 -35 -61 0
4 35 71 0
-4 -35 -71 0
5 35 81 0
-5 -35 -81 0
1 36 42 0
-1 -36 -42 0
2 36 52 0
-2 -36 -52 0
3 36 62 0
-3 -36 -62 0
4 36 72 0
-4 -36 -72 0
5 36 82 0
-5 -36 -82 0
1 37 43 0
-1 -37 -43 0
2 37 53 0
-2 -37 -53 0
3 37 63 0
-3 -37 -63 0
4 37 73 0
-4 -37 -73 0
5 37 83 0
-5 -37 -83 0
1 38 44 0
-1 -38 -44 0
2 38 54 0
-2 -38 -54 0
3 38 64 0
-3 -38 -64 0
4 38 74 0
-4 -38 -74 0
1 39 45 0
-1 -39 -45 0
2 39 55 0
-2 -39 -55 0
3 39 65 0
-3 -39 -65 0
4 39 75 0
-4 -39 -75 0
1 40 46 0
-1 -40 -46 0
2 40 56 0
-2 -40 -56 0
3 40 66 0
-3 -40 -66 0
4 40 76 0
-4 -40 -76 0
1 41 47 0
-1 -41 -47 0
2 41 57 0
-2 -41 -57 0
3 41 67 0
-3 -41 -67 0
4 41 77 0
-4 -41 -77 0
1 42 48 0
-1 -42 -48 0
2 42 58 0
-2 -42 -58 0
3 42 68 0
-3 -42 -68 0
4 42 78 0
-4 -42 -78 0
1 43 49 0
-1 -43 -49 0
2 43 59 0
-2 -43 -59 0
3 43 69 0
-3 -43 -69 0
4 43 79 0
-4 -43 -79 0
1 44 50 0
-1 -44 -50 0
2 44 60 0
-2 -44 -60 0
3 44 70 0
-3 -44 -70 0
4 44 80 0
-4 -44 -80 0
1 45 51 0
-1 -45 -51 0
2 45 61 0
-2 -45 -61 0
3 45 71 0
-3 -45 -71 0
4 45 81 0
-4 -45 -81 0
1 46 52 0
-1 -46 -52 0
2 46 62 0
-2 -46 -62 0
3 46 72 0
-3 -46 -72 0
4 46 82 0
-4 -46 -82 0
1 47 53 0
-1 -47 -53 0
2 47 63 0
-2 -47 -63 0
3 47 73 0
-3 -47 -73 0
4 47 83 0
-4 -47 -83 0
1 48 54 0
-1 -48 -54 0
2 48 64 0
-2 -48 -64 0
3 48 74 0
-3 -48 -74 0
1 49 55 0
-1 -49 -55 0
2 49 65 0
-2 -49 -65 0
3 49 75 0
-3 -49 -75 0
1 50 56 0
-1 -50 -56 0
2 50 66 0
-2 -50 -66 0
3 50 76 0
-3 -50 -76 0
1 51 57 0
-1 -51 -57 0
2 51 67 0
-2 -51 -67 0
3 51 77 0
-3 -51 -77 0
1 52 58 0
-1 -52 -58 0
2 52 68 0
-2 -52 -68 0
3 52 78 0
-3 -52 -78 0
1 53 59 0
-1 -53 -59 0
2 53 69 0
-2 -53 -69 0
3 53 79 0
-3 -53 -79 0
1 54 60 0
-1 -54 -60 0
2 54 70 0
-2 -54 -70 0
3 54 80 0
-3 -54 -80 0
1 55 61 0
-1 -55 -61 0
2 55 71 0
-2 -55 -71 0
3 55 81 0
-3 -55 -81 0
1 56 62 0
-1 -56 -62 0
2 56 72 0
-2 -56 -72 0
3 56 82 0
-3 -56 -82 0
1 57 63 0
-1 -57 -63 0
2 57 73 0
-2 -57 -73 0
3 57 83 0
-3 -57 -83 0
1 58 64 0
-1 -58 -64 0
2 58 74 0
-2 -58 -74 0
1 59 65 0
-1 -59 -65 0
2 59 75 0
-2 -59 -75 0
1 60 66 0
-1 -60 -66 0
2 60 76 0
-2 -60 -76 0
1 61 67 0
-1 -61 -67 0
2 61 77 0
-2 -61 -77 0
1 62 68 0
-1 -62 -68 0
2 62 78 0
-2 -62 -78 0
1 63 69 0
-1 -63 -69 0
2 63 79 0
-2 -63 -79 0
1 64 70 0
-1 -64 -70 0
2 64 80 0
-2 -64 -80 0
1 65 71 0
-1 -65 -71 0
2 65 81 0
-2 -65 -81 0
1 66 72 0
-1 -66 -72 0
2 66 82 0
-2 -66 -82 0
1 67 73 0
-1 -67 -73 0
2 67 83 0
-2 -67 -83 0
1 68 74 0
-1 -68 -74 0
1 69 75 0
-1 -69 -75 0
1 70 76 0
-1 -70 -76 0
1 71 77 0
-1 -71 -77 0
1 72 78 0
-1 -72 -78 0
1 73 79 0
-1 -73 -79 0
1 74 80 0
-1 -74 -80 0
1 75 81 0
-1 -75 -81 0
1 76 82 0
-1 -76 -82 0
1 77 83 0
-1 -77 -83 0
