certificates/rado_a10_c4_N83.drat
1 -80 -83 0
-80 -81 -83 0
-8 80 -83 0
-4 -82 0
80 4 -83 0
4 -83 0
d 80 4 -83 0
-80 -83 0
d -80 -81 -83 0
d 1 -80 -83 0
7 -83 0
-4 -83 0
d -4 -47 -83 0
-83 0
8 0
-7 0
1 0
73 0
17 0
-77 0
-14 0
-2 0
-79 0
-67 0
-23 0
-6 0
-11 0
0
